PROBLEM NAME: eil51_n5
KNAPSACK DATA TYPE: multiple strongly correlated
DIMENSION: 5
NUMBER OF ITEMS: 40
CAPACITY OF KNAPSACK: 2092
MIN SPEED: 0.1
MAX SPEED: 1
RENTING RATIO: 7.47
EDGE_WEIGHT_TYPE: CEIL_2D
NODE_COORD_SECTION	(INDEX, X, Y):
1	31	32
2	36	16
3	62	63
4	5	6
5	30	15
ITEMS SECTION	(INDEX, PROFIT, WEIGHT, ASSIGNED NODE NUMBER):
1	1197	997	3
2	1194	994	3
3	1192	992	3
4	1131	931	3
5	1108	908	3
6	1093	893	3
7	1074	874	3
8	1026	726	3
9	1020	720	3
10	1015	815	3
11	994	794	2
12	991	791	2
13	966	766	2
14	907	707	2
15	900	700	2
16	867	667	2
17	849	649	2
18	833	633	2
19	817	617	2
20	798	598	2
21	769	569	5
22	744	544	5
23	739	539	5
24	737	537	5
25	706	506	5
26	687	487	5
27	657	457	5
28	646	446	5
29	628	428	5
30	622	422	5
31	619	419	4
32	616	416	4
33	559	359	4
34	534	334	4
35	437	237	4
36	396	196	4
37	331	131	4
38	316	116	4
39	294	94	4
40	207	7	4
